NAME /Users/henri/Research/solvers/instances/idol-instances/robust/collection/spp_dkp_Lefebvre_et_al_2026/shortest_path_10_5/uncertainty_sets/discrete_knapsack
ROWS
 N  OBJ
 L  primal_lower
COLUMNS
    MARKER    'MARKER'                 'INTORG'
    y[0,1]     OBJ        0
    y[0,1]     primal_lower -0.54
    y[0,2]     OBJ        0
    y[0,2]     primal_lower -4.6
    y[0,3]     OBJ        0
    y[0,3]     primal_lower -3.44
    y[0,4]     OBJ        0
    y[0,4]     primal_lower -1.66
    y[0,5]     OBJ        0
    y[0,5]     primal_lower -3.34
    y[0,8]     OBJ        0
    y[0,8]     primal_lower -3.78
    y[0,9]     OBJ        0
    y[0,9]     primal_lower -3.05
    y[1,0]     OBJ        0
    y[1,0]     primal_lower -1.96
    y[1,2]     OBJ        0
    y[1,2]     primal_lower -3.33
    y[1,3]     OBJ        0
    y[1,3]     primal_lower -1.16
    y[1,4]     OBJ        0
    y[1,4]     primal_lower -1.21
    y[1,5]     OBJ        0
    y[1,5]     primal_lower -0.11
    y[1,6]     OBJ        0
    y[1,6]     primal_lower -0.47
    y[1,7]     OBJ        0
    y[1,7]     primal_lower -1.42
    y[1,9]     OBJ        0
    y[1,9]     primal_lower -3.03
    y[2,0]     OBJ        0
    y[2,0]     primal_lower -1.52
    y[2,1]     OBJ        0
    y[2,1]     primal_lower -0.88
    y[2,3]     OBJ        0
    y[2,3]     primal_lower -4.33
    y[2,4]     OBJ        0
    y[2,4]     primal_lower -1.28
    y[2,5]     OBJ        0
    y[2,5]     primal_lower -1.29
    y[2,6]     OBJ        0
    y[2,6]     primal_lower -4.51
    y[2,7]     OBJ        0
    y[2,7]     primal_lower -0.6
    y[2,9]     OBJ        0
    y[2,9]     primal_lower -3.53
    y[3,0]     OBJ        0
    y[3,0]     primal_lower -0.02
    y[3,1]     OBJ        0
    y[3,1]     primal_lower -4.05
    y[3,2]     OBJ        0
    y[3,2]     primal_lower -3.29
    y[3,4]     OBJ        0
    y[3,4]     primal_lower -2.61
    y[3,5]     OBJ        0
    y[3,5]     primal_lower -4.42
    y[3,7]     OBJ        0
    y[3,7]     primal_lower -2.42
    y[3,8]     OBJ        0
    y[3,8]     primal_lower -0.84
    y[3,9]     OBJ        0
    y[3,9]     primal_lower -2.54
    y[4,0]     OBJ        0
    y[4,0]     primal_lower -1.39
    y[4,1]     OBJ        0
    y[4,1]     primal_lower -0.05
    y[4,2]     OBJ        0
    y[4,2]     primal_lower -4.17
    y[4,3]     OBJ        0
    y[4,3]     primal_lower -3.1
    y[4,5]     OBJ        0
    y[4,5]     primal_lower -4.45
    y[4,7]     OBJ        0
    y[4,7]     primal_lower -3.52
    y[4,8]     OBJ        0
    y[4,8]     primal_lower -1.26
    y[4,9]     OBJ        0
    y[4,9]     primal_lower -1.71
    y[5,0]     OBJ        0
    y[5,0]     primal_lower -2.49
    y[5,1]     OBJ        0
    y[5,1]     primal_lower -2.58
    y[5,2]     OBJ        0
    y[5,2]     primal_lower -1.22
    y[5,3]     OBJ        0
    y[5,3]     primal_lower -0.82
    y[5,4]     OBJ        0
    y[5,4]     primal_lower -1.7
    y[5,6]     OBJ        0
    y[5,6]     primal_lower -0.66
    y[5,7]     OBJ        0
    y[5,7]     primal_lower -1.84
    y[5,9]     OBJ        0
    y[5,9]     primal_lower -2.23
    y[6,1]     OBJ        0
    y[6,1]     primal_lower -4.58
    y[6,2]     OBJ        0
    y[6,2]     primal_lower -0.69
    y[6,5]     OBJ        0
    y[6,5]     primal_lower -2.43
    y[6,7]     OBJ        0
    y[6,7]     primal_lower -2.49
    y[6,9]     OBJ        0
    y[6,9]     primal_lower -1.44
    y[7,1]     OBJ        0
    y[7,1]     primal_lower -0.75
    y[7,2]     OBJ        0
    y[7,2]     primal_lower -2.82
    y[7,3]     OBJ        0
    y[7,3]     primal_lower -0.49
    y[7,4]     OBJ        0
    y[7,4]     primal_lower -2.68
    y[7,5]     OBJ        0
    y[7,5]     primal_lower -1.82
    y[7,6]     OBJ        0
    y[7,6]     primal_lower -0.4
    y[7,9]     OBJ        0
    y[7,9]     primal_lower -2.65
    y[8,0]     OBJ        0
    y[8,0]     primal_lower -3.06
    y[8,3]     OBJ        0
    y[8,3]     primal_lower -3.13
    y[8,4]     OBJ        0
    y[8,4]     primal_lower -0.89
    y[8,9]     OBJ        0
    y[8,9]     primal_lower -4.51
    y[9,0]     OBJ        0
    y[9,0]     primal_lower -0.28
    y[9,1]     OBJ        0
    y[9,1]     primal_lower -4.16
    y[9,2]     OBJ        0
    y[9,2]     primal_lower -3.7
    y[9,3]     OBJ        0
    y[9,3]     primal_lower -1.19
    y[9,4]     OBJ        0
    y[9,4]     primal_lower -4.38
    y[9,5]     OBJ        0
    y[9,5]     primal_lower -2.1
    y[9,6]     OBJ        0
    y[9,6]     primal_lower -1.78
    y[9,7]     OBJ        0
    y[9,7]     primal_lower -4.22
    y[9,8]     OBJ        0
    y[9,8]     primal_lower -3.56
    u[0,1]     OBJ        0
    u[0,1]     primal_lower 32
    u[0,2]     OBJ        0
    u[0,2]     primal_lower 49
    u[0,3]     OBJ        0
    u[0,3]     primal_lower 89
    u[0,4]     OBJ        0
    u[0,4]     primal_lower 93
    u[0,5]     OBJ        0
    u[0,5]     primal_lower 55
    u[0,8]     OBJ        0
    u[0,8]     primal_lower 67
    u[0,9]     OBJ        0
    u[0,9]     primal_lower 24
    u[1,0]     OBJ        0
    u[1,0]     primal_lower 99
    u[1,2]     OBJ        0
    u[1,2]     primal_lower 33
    u[1,3]     OBJ        0
    u[1,3]     primal_lower 64
    u[1,4]     OBJ        0
    u[1,4]     primal_lower 94
    u[1,5]     OBJ        0
    u[1,5]     primal_lower 84
    u[1,6]     OBJ        0
    u[1,6]     primal_lower 10
    u[1,7]     OBJ        0
    u[1,7]     primal_lower 60
    u[1,9]     OBJ        0
    u[1,9]     primal_lower 44
    u[2,0]     OBJ        0
    u[2,0]     primal_lower 30
    u[2,1]     OBJ        0
    u[2,1]     primal_lower 82
    u[2,3]     OBJ        0
    u[2,3]     primal_lower 13
    u[2,4]     OBJ        0
    u[2,4]     primal_lower 59
    u[2,5]     OBJ        0
    u[2,5]     primal_lower 25
    u[2,6]     OBJ        0
    u[2,6]     primal_lower 88
    u[2,7]     OBJ        0
    u[2,7]     primal_lower 50
    u[2,9]     OBJ        0
    u[2,9]     primal_lower 12
    u[3,0]     OBJ        0
    u[3,0]     primal_lower 10
    u[3,1]     OBJ        0
    u[3,1]     primal_lower 41
    u[3,2]     OBJ        0
    u[3,2]     primal_lower 66
    u[3,4]     OBJ        0
    u[3,4]     primal_lower 73
    u[3,5]     OBJ        0
    u[3,5]     primal_lower 81
    u[3,7]     OBJ        0
    u[3,7]     primal_lower 17
    u[3,8]     OBJ        0
    u[3,8]     primal_lower 6
    u[3,9]     OBJ        0
    u[3,9]     primal_lower 85
    u[4,0]     OBJ        0
    u[4,0]     primal_lower 79
    u[4,1]     OBJ        0
    u[4,1]     primal_lower 6
    u[4,2]     OBJ        0
    u[4,2]     primal_lower 45
    u[4,3]     OBJ        0
    u[4,3]     primal_lower 93
    u[4,5]     OBJ        0
    u[4,5]     primal_lower 9
    u[4,7]     OBJ        0
    u[4,7]     primal_lower 70
    u[4,8]     OBJ        0
    u[4,8]     primal_lower 73
    u[4,9]     OBJ        0
    u[4,9]     primal_lower 11
    u[5,0]     OBJ        0
    u[5,0]     primal_lower 32
    u[5,1]     OBJ        0
    u[5,1]     primal_lower 18
    u[5,2]     OBJ        0
    u[5,2]     primal_lower 92
    u[5,3]     OBJ        0
    u[5,3]     primal_lower 92
    u[5,4]     OBJ        0
    u[5,4]     primal_lower 22
    u[5,6]     OBJ        0
    u[5,6]     primal_lower 45
    u[5,7]     OBJ        0
    u[5,7]     primal_lower 19
    u[5,9]     OBJ        0
    u[5,9]     primal_lower 35
    u[6,1]     OBJ        0
    u[6,1]     primal_lower 47
    u[6,2]     OBJ        0
    u[6,2]     primal_lower 57
    u[6,5]     OBJ        0
    u[6,5]     primal_lower 36
    u[6,7]     OBJ        0
    u[6,7]     primal_lower 85
    u[6,9]     OBJ        0
    u[6,9]     primal_lower 45
    u[7,1]     OBJ        0
    u[7,1]     primal_lower 87
    u[7,2]     OBJ        0
    u[7,2]     primal_lower 75
    u[7,3]     OBJ        0
    u[7,3]     primal_lower 16
    u[7,4]     OBJ        0
    u[7,4]     primal_lower 38
    u[7,5]     OBJ        0
    u[7,5]     primal_lower 58
    u[7,6]     OBJ        0
    u[7,6]     primal_lower 13
    u[7,9]     OBJ        0
    u[7,9]     primal_lower 36
    u[8,0]     OBJ        0
    u[8,0]     primal_lower 87
    u[8,3]     OBJ        0
    u[8,3]     primal_lower 74
    u[8,4]     OBJ        0
    u[8,4]     primal_lower 28
    u[8,9]     OBJ        0
    u[8,9]     primal_lower 36
    u[9,0]     OBJ        0
    u[9,0]     primal_lower 31
    u[9,1]     OBJ        0
    u[9,1]     primal_lower 96
    u[9,2]     OBJ        0
    u[9,2]     primal_lower 95
    u[9,3]     OBJ        0
    u[9,3]     primal_lower 46
    u[9,4]     OBJ        0
    u[9,4]     primal_lower 10
    u[9,5]     OBJ        0
    u[9,5]     primal_lower 53
    u[9,6]     OBJ        0
    u[9,6]     primal_lower 74
    u[9,7]     OBJ        0
    u[9,7]     primal_lower 50
    u[9,8]     OBJ        0
    u[9,8]     primal_lower 96
    MARKER    'MARKER'                 'INTEND'
RHS
    RHS       primal_lower 340
BOUNDS
 LI BND       y[0,1]     0
 UI BND       y[0,1]     1
 LI BND       y[0,2]     0
 UI BND       y[0,2]     1
 LI BND       y[0,3]     0
 UI BND       y[0,3]     1
 LI BND       y[0,4]     0
 UI BND       y[0,4]     1
 LI BND       y[0,5]     0
 UI BND       y[0,5]     1
 LI BND       y[0,8]     0
 UI BND       y[0,8]     1
 LI BND       y[0,9]     0
 UI BND       y[0,9]     1
 LI BND       y[1,0]     0
 UI BND       y[1,0]     1
 LI BND       y[1,2]     0
 UI BND       y[1,2]     1
 LI BND       y[1,3]     0
 UI BND       y[1,3]     1
 LI BND       y[1,4]     0
 UI BND       y[1,4]     1
 LI BND       y[1,5]     0
 UI BND       y[1,5]     1
 LI BND       y[1,6]     0
 UI BND       y[1,6]     1
 LI BND       y[1,7]     0
 UI BND       y[1,7]     1
 LI BND       y[1,9]     0
 UI BND       y[1,9]     1
 LI BND       y[2,0]     0
 UI BND       y[2,0]     1
 LI BND       y[2,1]     0
 UI BND       y[2,1]     1
 LI BND       y[2,3]     0
 UI BND       y[2,3]     1
 LI BND       y[2,4]     0
 UI BND       y[2,4]     1
 LI BND       y[2,5]     0
 UI BND       y[2,5]     1
 LI BND       y[2,6]     0
 UI BND       y[2,6]     1
 LI BND       y[2,7]     0
 UI BND       y[2,7]     1
 LI BND       y[2,9]     0
 UI BND       y[2,9]     1
 LI BND       y[3,0]     0
 UI BND       y[3,0]     1
 LI BND       y[3,1]     0
 UI BND       y[3,1]     1
 LI BND       y[3,2]     0
 UI BND       y[3,2]     1
 LI BND       y[3,4]     0
 UI BND       y[3,4]     1
 LI BND       y[3,5]     0
 UI BND       y[3,5]     1
 LI BND       y[3,7]     0
 UI BND       y[3,7]     1
 LI BND       y[3,8]     0
 UI BND       y[3,8]     1
 LI BND       y[3,9]     0
 UI BND       y[3,9]     1
 LI BND       y[4,0]     0
 UI BND       y[4,0]     1
 LI BND       y[4,1]     0
 UI BND       y[4,1]     1
 LI BND       y[4,2]     0
 UI BND       y[4,2]     1
 LI BND       y[4,3]     0
 UI BND       y[4,3]     1
 LI BND       y[4,5]     0
 UI BND       y[4,5]     1
 LI BND       y[4,7]     0
 UI BND       y[4,7]     1
 LI BND       y[4,8]     0
 UI BND       y[4,8]     1
 LI BND       y[4,9]     0
 UI BND       y[4,9]     1
 LI BND       y[5,0]     0
 UI BND       y[5,0]     1
 LI BND       y[5,1]     0
 UI BND       y[5,1]     1
 LI BND       y[5,2]     0
 UI BND       y[5,2]     1
 LI BND       y[5,3]     0
 UI BND       y[5,3]     1
 LI BND       y[5,4]     0
 UI BND       y[5,4]     1
 LI BND       y[5,6]     0
 UI BND       y[5,6]     1
 LI BND       y[5,7]     0
 UI BND       y[5,7]     1
 LI BND       y[5,9]     0
 UI BND       y[5,9]     1
 LI BND       y[6,1]     0
 UI BND       y[6,1]     1
 LI BND       y[6,2]     0
 UI BND       y[6,2]     1
 LI BND       y[6,5]     0
 UI BND       y[6,5]     1
 LI BND       y[6,7]     0
 UI BND       y[6,7]     1
 LI BND       y[6,9]     0
 UI BND       y[6,9]     1
 LI BND       y[7,1]     0
 UI BND       y[7,1]     1
 LI BND       y[7,2]     0
 UI BND       y[7,2]     1
 LI BND       y[7,3]     0
 UI BND       y[7,3]     1
 LI BND       y[7,4]     0
 UI BND       y[7,4]     1
 LI BND       y[7,5]     0
 UI BND       y[7,5]     1
 LI BND       y[7,6]     0
 UI BND       y[7,6]     1
 LI BND       y[7,9]     0
 UI BND       y[7,9]     1
 LI BND       y[8,0]     0
 UI BND       y[8,0]     1
 LI BND       y[8,3]     0
 UI BND       y[8,3]     1
 LI BND       y[8,4]     0
 UI BND       y[8,4]     1
 LI BND       y[8,9]     0
 UI BND       y[8,9]     1
 LI BND       y[9,0]     0
 UI BND       y[9,0]     1
 LI BND       y[9,1]     0
 UI BND       y[9,1]     1
 LI BND       y[9,2]     0
 UI BND       y[9,2]     1
 LI BND       y[9,3]     0
 UI BND       y[9,3]     1
 LI BND       y[9,4]     0
 UI BND       y[9,4]     1
 LI BND       y[9,5]     0
 UI BND       y[9,5]     1
 LI BND       y[9,6]     0
 UI BND       y[9,6]     1
 LI BND       y[9,7]     0
 UI BND       y[9,7]     1
 LI BND       y[9,8]     0
 UI BND       y[9,8]     1
 LI BND       u[0,1]     0
 UI BND       u[0,1]     1
 LI BND       u[0,2]     0
 UI BND       u[0,2]     1
 LI BND       u[0,3]     0
 UI BND       u[0,3]     1
 LI BND       u[0,4]     0
 UI BND       u[0,4]     1
 LI BND       u[0,5]     0
 UI BND       u[0,5]     1
 LI BND       u[0,8]     0
 UI BND       u[0,8]     1
 LI BND       u[0,9]     0
 UI BND       u[0,9]     1
 LI BND       u[1,0]     0
 UI BND       u[1,0]     1
 LI BND       u[1,2]     0
 UI BND       u[1,2]     1
 LI BND       u[1,3]     0
 UI BND       u[1,3]     1
 LI BND       u[1,4]     0
 UI BND       u[1,4]     1
 LI BND       u[1,5]     0
 UI BND       u[1,5]     1
 LI BND       u[1,6]     0
 UI BND       u[1,6]     1
 LI BND       u[1,7]     0
 UI BND       u[1,7]     1
 LI BND       u[1,9]     0
 UI BND       u[1,9]     1
 LI BND       u[2,0]     0
 UI BND       u[2,0]     1
 LI BND       u[2,1]     0
 UI BND       u[2,1]     1
 LI BND       u[2,3]     0
 UI BND       u[2,3]     1
 LI BND       u[2,4]     0
 UI BND       u[2,4]     1
 LI BND       u[2,5]     0
 UI BND       u[2,5]     1
 LI BND       u[2,6]     0
 UI BND       u[2,6]     1
 LI BND       u[2,7]     0
 UI BND       u[2,7]     1
 LI BND       u[2,9]     0
 UI BND       u[2,9]     1
 LI BND       u[3,0]     0
 UI BND       u[3,0]     1
 LI BND       u[3,1]     0
 UI BND       u[3,1]     1
 LI BND       u[3,2]     0
 UI BND       u[3,2]     1
 LI BND       u[3,4]     0
 UI BND       u[3,4]     1
 LI BND       u[3,5]     0
 UI BND       u[3,5]     1
 LI BND       u[3,7]     0
 UI BND       u[3,7]     1
 LI BND       u[3,8]     0
 UI BND       u[3,8]     1
 LI BND       u[3,9]     0
 UI BND       u[3,9]     1
 LI BND       u[4,0]     0
 UI BND       u[4,0]     1
 LI BND       u[4,1]     0
 UI BND       u[4,1]     1
 LI BND       u[4,2]     0
 UI BND       u[4,2]     1
 LI BND       u[4,3]     0
 UI BND       u[4,3]     1
 LI BND       u[4,5]     0
 UI BND       u[4,5]     1
 LI BND       u[4,7]     0
 UI BND       u[4,7]     1
 LI BND       u[4,8]     0
 UI BND       u[4,8]     1
 LI BND       u[4,9]     0
 UI BND       u[4,9]     1
 LI BND       u[5,0]     0
 UI BND       u[5,0]     1
 LI BND       u[5,1]     0
 UI BND       u[5,1]     1
 LI BND       u[5,2]     0
 UI BND       u[5,2]     1
 LI BND       u[5,3]     0
 UI BND       u[5,3]     1
 LI BND       u[5,4]     0
 UI BND       u[5,4]     1
 LI BND       u[5,6]     0
 UI BND       u[5,6]     1
 LI BND       u[5,7]     0
 UI BND       u[5,7]     1
 LI BND       u[5,9]     0
 UI BND       u[5,9]     1
 LI BND       u[6,1]     0
 UI BND       u[6,1]     1
 LI BND       u[6,2]     0
 UI BND       u[6,2]     1
 LI BND       u[6,5]     0
 UI BND       u[6,5]     1
 LI BND       u[6,7]     0
 UI BND       u[6,7]     1
 LI BND       u[6,9]     0
 UI BND       u[6,9]     1
 LI BND       u[7,1]     0
 UI BND       u[7,1]     1
 LI BND       u[7,2]     0
 UI BND       u[7,2]     1
 LI BND       u[7,3]     0
 UI BND       u[7,3]     1
 LI BND       u[7,4]     0
 UI BND       u[7,4]     1
 LI BND       u[7,5]     0
 UI BND       u[7,5]     1
 LI BND       u[7,6]     0
 UI BND       u[7,6]     1
 LI BND       u[7,9]     0
 UI BND       u[7,9]     1
 LI BND       u[8,0]     0
 UI BND       u[8,0]     1
 LI BND       u[8,3]     0
 UI BND       u[8,3]     1
 LI BND       u[8,4]     0
 UI BND       u[8,4]     1
 LI BND       u[8,9]     0
 UI BND       u[8,9]     1
 LI BND       u[9,0]     0
 UI BND       u[9,0]     1
 LI BND       u[9,1]     0
 UI BND       u[9,1]     1
 LI BND       u[9,2]     0
 UI BND       u[9,2]     1
 LI BND       u[9,3]     0
 UI BND       u[9,3]     1
 LI BND       u[9,4]     0
 UI BND       u[9,4]     1
 LI BND       u[9,5]     0
 UI BND       u[9,5]     1
 LI BND       u[9,6]     0
 UI BND       u[9,6]     1
 LI BND       u[9,7]     0
 UI BND       u[9,7]     1
 LI BND       u[9,8]     0
 UI BND       u[9,8]     1
ENDATA
